Version identifier: 22.1.0.0 | 2022-03-09 | 1a383f8ce
CPXPARAM_Read_DataCheck                          1
Tried aggregator 3 times.
MIP Presolve eliminated 45770 rows and 5046 columns.
MIP Presolve modified 646 coefficients.
Aggregator did 41674 substitutions.
Reduced MIP has 5481 rows, 42980 columns, and 91506 nonzeros.
Reduced MIP has 42950 binaries, 30 generals, 0 SOSs, and 0 indicators.
Presolve time = 0.46 sec. (454.70 ticks)
Tried aggregator 1 time.
Detecting symmetries...
Reduced MIP has 5481 rows, 42980 columns, and 91506 nonzeros.
Reduced MIP has 42950 binaries, 30 generals, 0 SOSs, and 0 indicators.
Presolve time = 0.07 sec. (67.79 ticks)
Probing fixed 45 vars, tightened 0 bounds.
Probing changed sense of 10 constraints.
Probing time = 0.11 sec. (14.98 ticks)
Clique table members: 87339.
MIP emphasis: balance optimality and feasibility.
MIP search method: dynamic search.
Parallel mode: deterministic, using up to 8 threads.
Root relaxation solution time = 0.59 sec. (347.19 ticks)

        Nodes                                         Cuts/
   Node  Left     Objective  IInf  Best Integer    Best Bound    ItCnt     Gap

      0     0       30.3689  3996                     30.3689     4864         
      0     0       46.0000   733                    Cuts: 44    10464         
      0     0       46.0000   779                    Cuts: 66    14482         
      0     0       46.0000   483                 ZeroHalf: 7    18125         
      0     0       46.0000   522                ZeroHalf: 16    21957         
Heuristic still looking.
*     0+    0                           50.0000       46.0000             8.00%
*     0+    0                           49.0000       46.0000             6.12%
*     0+    0                           48.0000       46.0000             4.17%
      0     0  -1.00000e+75     0       48.0000       46.0000    21957    4.17%
      0     2       46.0000   522       48.0000       46.0000    21957    4.17%
Elapsed time = 102.41 sec. (43285.59 ticks, tree = 0.02 MB, solutions = 3)
      1     3       46.0000   498       48.0000       46.0000    24415    4.17%
      2     3       46.0000   447       48.0000       46.0000    22394    4.17%
      3     4       46.0000   386       48.0000       46.0000    30215    4.17%
      4     4       46.0000   354       48.0000       46.0000    27375    4.17%
      5     6       46.0714   303       48.0000       46.0000    33082    4.17%
      6     8       46.0714   285       48.0000       46.0000    36579    4.17%
      7     5       46.0000   363       48.0000       46.0000    30646    4.17%
     11    13       46.0714   508       48.0000       46.0000    53276    4.17%
*    13+    7                           47.0000       46.0000             2.13%
     13     7       47.0000     0       47.0000       46.0000    37862    2.13%
     17    15       46.0714   366       47.0000       46.0000    54555    2.13%
Elapsed time = 123.90 sec. (53272.73 ticks, tree = 0.08 MB, solutions = 5)
     34    13       46.0000   271       47.0000       46.0000    65535    2.13%
     60    22        cutoff             47.0000       46.0000   114598    2.13%
    105    18       46.0000   343       47.0000       46.0000    87591    2.13%
    152    80       46.0000   137       47.0000       46.0000   163642    2.13%
*   196+  103                           46.0000       46.0000             0.00%
    203   109       46.0000   343       46.0000       46.0000   203001    0.00%
    230   122       46.0000   356       46.0000       46.0000   220250    0.00%
    232    16       46.0000   503       46.0000       46.0000    88301    0.00%

Zero-half cuts applied:  74
Lift and project cuts applied:  1
Gomory fractional cuts applied:  17

Root node processing (before b&c):
  Real time             =  102.30 sec. (43245.63 ticks)
Parallel b&c, 8 threads:
  Real time             =   41.94 sec. (21111.97 ticks)
  Sync time (average)   =   13.62 sec.
  Wait time (average)   =    0.00 sec.
                          ------------
Total (root+branch&cut) =  144.24 sec. (64357.60 ticks)
